NAME : single
TYPE : ATSP
DIMENSION : 8
EDGE_WEIGHT_TYPE : EXPLICIT
EDGE_WEIGHT_FORMAT : FULL_MATRIX
EDGE_WEIGHT_SECTION
0 3365 3659 1400 0 3793 692 420 
199298 0 900 3579 3365 1346 2889 3117 
199240 900 0 3873 3659 796 3183 3411 
199512 3579 3873 0 1400 4007 1172 1251 
199750 3365 3659 1400 0 3793 692 420 
199332 1346 796 4007 3793 0 3317 3545 
199651 2889 3183 1172 692 3317 0 444 
199706 3117 3411 1251 420 3545 444 0 
EOF